Route #1: 2 40 7 48 34
Route #2: 25 4 18 26 47 24 49 12 37
Route #3: 27 36 11 16 43 33 9
Route #4: 5 32 20
Route #5: 30 19 29 28 1 39
Route #6: 44 6 31 14 46 38 22
Route #7: 35 45 41 23 13 3
Route #8: 10 21 42 17 8 15
Cost 1318
Time 0.103831
